data/CVRPLIB/Vrp-Set-XML100/instances/XML100_3316_26.vrp
NAME : XML100_3316_26
COMMENT : Generated by Queiroga, Sadykov, Uchoa, and Vidal (2021)
TYPE : CVRP
DIMENSION : 101
EDGE_WEIGHT_TYPE : EUC_2D
CAPACITY : 29
NODE_COORD_SECTION
1    0    0   
2    930  128 
3    897  29  
4    204  700 
5    633  841 
6    99   430 
7    705  949 
8    433  723 
9    14   52  
10   185  792 
11   160  758 
12   311  414 
13   158  654 
14   95   19  
15   393  342 
16   334  827 
17   57   128 
18   330  489 
19   172  775 
20   97   168 
21   527  103 
22   298  641 
23   202  419 
24   235  778 
25   343  266 
26   74   812 
27   97   72  
28   379  606 
29   760  597 
30   404  154 
31   195  738 
32   653  643 
33   151  803 
34   583  357 
35   142  224 
36   469  109 
37   104  88  
38   441  414 
39   389  754 
40   954  3   
41   272  645 
42   173  920 
43   341  385 
44   263  653 
45   37   482 
46   428  355 
47   856  147 
48   746  429 
49   14   876 
50   738  269 
51   217  731 
52   579  240 
53   224  872 
54   474  18  
55   168  174 
56   388  265 
57   12   940 
58   418  769 
59   379  781 
60   426  622 
61   596  713 
62   254  382 
63   250  397 
64   563  340 
65   441  407 
66   423  280 
67   232  543 
68   113  834 
69   40   115 
70   731  267 
71   88   311 
72   345  566 
73   263  35  
74   209  201 
75   49   451 
76   71   363 
77   514  475 
78   407  217 
79   334  693 
80   112  863 
81   994  304 
82   424  894 
83   556  597 
84   768  822 
85   292  667 
86   256  351 
87   329  249 
88   148  217 
89   892  855 
90   7    274 
91   570  162 
92   178  850 
93   67   903 
94   512  92  
95   835  685 
96   115  624 
97   822  735 
98   856  208 
99   620  952 
100  244  775 
101  417  554 
DEMAND_SECTION
1    0   
2    1   
3    1   
4    1   
5    1   
6    1   
7    1   
8    1   
9    1   
10   1   
11   1   
12   1   
13   1   
14   1   
15   1   
16   1   
17   1   
18   1   
19   1   
20   1   
21   1   
22   1   
23   1   
24   1   
25   1   
26   1   
27   1   
28   1   
29   1   
30   1   
31   1   
32   1   
33   1   
34   1   
35   1   
36   1   
37   1   
38   1   
39   1   
40   1   
41   1   
42   1   
43   1   
44   1   
45   1   
46   1   
47   1   
48   1   
49   1   
50   1   
51   1   
52   1   
53   1   
54   1   
55   1   
56   1   
57   1   
58   1   
59   1   
60   1   
61   1   
62   1   
63   1   
64   1   
65   1   
66   1   
67   1   
68   1   
69   1   
70   1   
71   1   
72   1   
73   1   
74   1   
75   1   
76   1   
77   1   
78   1   
79   1   
80   1   
81   1   
82   1   
83   1   
84   1   
85   1   
86   1   
87   1   
88   1   
89   1   
90   1   
91   1   
92   1   
93   1   
94   1   
95   1   
96   1   
97   1   
98   1   
99   1   
100  1   
101  1   
DEPOT_SECTION
1
-1
EOF
