data/CVRPLIB/Vrp-Set-XML100/solutions/XML100_3316_26.sol
Route #1: 16 19 87 34 85 61 62 22 5 75 70 68 8
Route #2: 89 74 44 95 12 3 50 30 10 18 32 67 25 48 56 92 79 41 52 91 9 23 99 78 84 21 40 43 66
Route #3: 29 77 64 37 76 82 60 31 28 94 96 88 83 6 98 4 81 15 58 38 57 7 59 100 27 71 17 11 42
Route #4: 13 72 53 35 93 20 90 51 69 49 97 46 2 39 1 80 47 33 63 45 14 65 55 24 86 73 54 36 26
Cost 10076
